\ENCODING=ISO-8859-1
\Problem name: 

Maximize
 obj: 2470.58823529412 y_0_0_0 + 705.882352941176 y_0_1_0
      + 2823.52941176471 y_0_2_0 + 1235.29411764706 y_0_0_1
      + 352.941176470588 y_0_1_1 + 1411.76470588235 y_0_2_1
      + 2470.58823529412 y_0_0_2 + 705.882352941176 y_0_1_2
      + 2823.52941176471 y_0_2_2 + 277.777777777778 y_1_0_0
      + 333.333333333333 y_1_1_0 + 388.888888888889 y_1_2_0
      + 138.888888888889 y_1_0_1 + 166.666666666667 y_1_1_1
      + 194.444444444444 y_1_2_1 + 277.777777777778 y_1_0_2
      + 333.333333333333 y_1_1_2 + 388.888888888889 y_1_2_2 + 1500 y_2_0_0
      + 3750 y_2_1_0 + 3750 y_2_2_0 + 750 y_2_0_1 + 1875 y_2_1_1 + 1875 y_2_2_1
      + 1500 y_2_0_2 + 3750 y_2_1_2 + 3750 y_2_2_2
Subject To
 c0_0:   y_0_0_0 + y_0_0_1 + y_0_0_2 <= 1
 c0_1:   y_0_1_0 + y_0_1_1 + y_0_1_2 <= 1
 c0_2:   y_0_2_0 + y_0_2_1 + y_0_2_2 <= 1
 c1_0:   y_1_0_0 + y_1_0_1 + y_1_0_2 <= 1
 c1_1:   y_1_1_0 + y_1_1_1 + y_1_1_2 <= 1
 c1_2:   y_1_2_0 + y_1_2_1 + y_1_2_2 <= 1
 c2_0:   y_2_0_0 + y_2_0_1 + y_2_0_2 <= 1
 c2_1:   y_2_1_0 + y_2_1_1 + y_2_1_2 <= 1
 c2_2:   y_2_2_0 + y_2_2_1 + y_2_2_2 <= 1
 d0_0_0: - x_0 + y_0_0_0 <= 0
 d0_0_1: - x_1 + y_0_0_1 <= 0
 d0_0_2: - x_2 + y_0_0_2 <= 0
 d0_1_0: - x_0 + y_0_1_0 <= 0
 d0_1_1: - x_1 + y_0_1_1 <= 0
 d0_1_2: - x_2 + y_0_1_2 <= 0
 d0_2_0: - x_0 + y_0_2_0 <= 0
 d0_2_1: - x_1 + y_0_2_1 <= 0
 d0_2_2: - x_2 + y_0_2_2 <= 0
 d1_0_0: - x_0 + y_1_0_0 <= 0
 d1_0_1: - x_1 + y_1_0_1 <= 0
 d1_0_2: - x_2 + y_1_0_2 <= 0
 d1_1_0: - x_0 + y_1_1_0 <= 0
 d1_1_1: - x_1 + y_1_1_1 <= 0
 d1_1_2: - x_2 + y_1_1_2 <= 0
 d1_2_0: - x_0 + y_1_2_0 <= 0
 d1_2_1: - x_1 + y_1_2_1 <= 0
 d1_2_2: - x_2 + y_1_2_2 <= 0
 d2_0_0: - x_0 + y_2_0_0 <= 0
 d2_0_1: - x_1 + y_2_0_1 <= 0
 d2_0_2: - x_2 + y_2_0_2 <= 0
 d2_1_0: - x_0 + y_2_1_0 <= 0
 d2_1_1: - x_1 + y_2_1_1 <= 0
 d2_1_2: - x_2 + y_2_1_2 <= 0
 d2_2_0: - x_0 + y_2_2_0 <= 0
 d2_2_1: - x_1 + y_2_2_1 <= 0
 d2_2_2: - x_2 + y_2_2_2 <= 0
 c37:    x_0 + y_0_0_1 + y_0_1_2 + y_1_0_1 + y_1_1_2 + y_2_0_1 + y_2_1_2 <= 1
 c38:    x_1 + y_0_1_0 + y_0_2_0 + y_0_1_2 + y_1_1_0 + y_1_2_0 + y_1_1_2
         + y_2_1_0 + y_2_2_0 + y_2_1_2 <= 1
 c39:    x_2 + y_0_0_0 + y_0_2_0 + y_0_0_1 + y_0_2_1 + y_1_0_0 + y_1_2_0
         + y_1_0_1 + y_1_2_1 + y_2_0_0 + y_2_2_0 + y_2_0_1 + y_2_2_1 <= 1
 c40:    y_0_1_0 + y_0_2_0 + y_0_1_2 + y_1_1_0 + y_1_2_0 + y_1_1_2 + y_2_1_0
         + y_2_2_0 + y_2_1_2 <= 0
 c41:    x_0 + x_1 + x_2  = 3
Bounds
 0 <= x_0 <= 1
 0 <= x_1 <= 1
 0 <= x_2 <= 1
Generals
 x_0  x_1  x_2 
End
